LengthSchedulingHorizon=670;
nAttributes=5;
SetupCosts=[[0, 0, 0, 0, 0], [3, 3, 3, 3, 3], [3, 3, 3, 3, 3], [3, 3, 3, 3, 3], [3, 3, 3, 3, 3], [3, 3, 3, 3, 3]];
SetupTimes=[[0, 0, 0, 0, 0], [3, 3, 3, 3, 3], [3, 3, 3, 3, 3], [3, 3, 3, 3, 3], [3, 3, 3, 3, 3], [3, 3, 3, 3, 3]];
nMachines=5;
MinCap=[0, 0, 0, 0, 0];
MaxCap=[20, 20, 20, 20, 20];

initState=[3, 3, 3, 3, 1];
nShifts=4;
ShiftStartTimes = [[0, 0, 67, 661], [43, 57, 235, 318], [0, 31, 226, 352], [0, 0, 0, 157], [107, 165, 235, 415]];
ShiftEndTimes = [[0, 0, 589, 668], [57, 206, 299, 589], [0, 192, 350, 634], [0, 0, 0, 632], [161, 220, 389, 646]];
nJobs=50;
EligibleMachines = [{1, 3, 4, 5}, {4}, {1, 2, 3, 5}, {1, 2, 5}, {1, 2, 4, 5}, {1, 2, 4}, {5}, {2, 3, 4, 5}, {3}, {1, 4}, {2, 4, 5}, {1, 2, 3, 4, 5}, {2, 3}, {2, 5}, {1, 2, 3, 4, 5}, {1, 3, 4}, {1, 2, 3, 5}, {3, 5}, {2, 3, 5}, {1, 2, 3, 4}, {3, 4}, {1, 2, 3}, {1, 3}, {1, 3, 4}, {2}, {1, 2, 3, 5}, {1, 2, 3, 4, 5}, {1, 5}, {4, 5}, {2, 4, 5}, {2, 4, 5}, {1, 2}, {1, 3, 4, 5}, {1, 3, 5}, {2, 3, 4}, {2, 4}, {1, 2, 4}, {1, 3, 4, 5}, {1, 2, 3, 5}, {1, 2, 3, 4}, {1, 2}, {1, 3, 4}, {2, 3, 4, 5}, {2, 5}, {2, 4, 5}, {1, 2, 3, 4}, {1, 2, 5}, {1, 4}, {2, 3, 5}, {1, 2}];
EarliestStart=[10, 66, 105, 102, 16, 102, 95, 66, 81, 1, 83, 37, 1, 31, 89, 67, 63, 95, 61, 90, 97, 55, 44, 6, 10, 127, 30, 35, 97, 51, 110, 45, 31, 21, 31, 1, 11, 100, 3, 39, 126, 94, 57, 32, 105, 20, 94, 105, 97, 79];
LatestEnd=[16, 98, 114, 151, 44, 110, 99, 101, 128, 22, 91, 39, 50, 38, 92, 74, 72, 103, 69, 99, 110, 70, 69, 8, 28, 128, 46, 52, 106, 76, 122, 85, 49, 30, 53, 12, 43, 112, 8, 67, 147, 106, 61, 42, 119, 43, 97, 112, 109, 92];
MinTime=[3, 10, 9, 10, 8, 7, 3, 8, 10, 5, 8, 2, 10, 3, 1, 2, 4, 3, 5, 7, 3, 4, 6, 2, 4, 1, 4, 4, 9, 6, 5, 9, 4, 5, 6, 8, 8, 7, 2, 7, 6, 6, 1, 3, 3, 5, 1, 2, 5, 3];
MaxTime=[10, 10, 10, 10, 9, 10, 8, 8, 10, 10, 9, 3, 10, 10, 2, 7, 8, 4, 8, 9, 6, 8, 8, 4, 9, 5, 5, 9, 10, 7, 5, 10, 10, 8, 8, 8, 10, 8, 6, 8, 10, 6, 8, 3, 6, 9, 5, 4, 9, 7];
JobSize=[12, 10, 14, 2, 2, 18, 18, 16, 13, 3, 15, 19, 13, 8, 18, 1, 8, 2, 3, 2, 4, 2, 5, 8, 9, 18, 19, 9, 18, 18, 20, 17, 4, 4, 9, 15, 14, 7, 1, 20, 9, 4, 18, 2, 12, 6, 7, 6, 8, 12];
Attribute=[1, 5, 1, 1, 2, 3, 1, 1, 3, 4, 3, 2, 4, 4, 3, 1, 1, 5, 3, 3, 1, 4, 2, 3, 2, 4, 3, 1, 4, 3, 2, 4, 3, 1, 4, 3, 3, 2, 1, 2, 4, 2, 5, 4, 1, 5, 5, 5, 4, 5];

upper_bound_integer_objective=1500;
mult_factor_total_runtime=2;
mult_factor_finished_toolate=12;
mult_factor_total_setuptimes=0;
mult_factor_total_setupcosts=2;
running_time_bound=257;
min_duration=1;
max_duration=10;
max_setup_time=3;
max_setup_cost=3;
